10487
1 1 1 1 0 0 1 0 1 1 
3 3 0 1 2 9 3 3 8 3 3 2 2 3 2 6 2 3 0 3 2 1 6 6 3 3 3 3 8 2 8 0 0 0 3 2 2 3 6 3 3 2 3 8 3 0 0 3 3 3 1 3 3 2 9 3 2 3 8 3 0 0 1 8 0 1 3 1 3 3 8 0 3 0 3 3 9 2 2 3 2 2 9 9 2 2 2 2 2 2 